\Problem name: compact

Minimize
OBJROW: C
Subject To
ord(0,1):  x(0,0) - x(0,2) >= 5
ord(0,2):  - x(0,0) + x(0,1) >= 7
ord(1,1):  x(1,1) - x(1,2) >= 9
ord(1,2):  x(1,0) - x(1,1) >= 2
ord(2,1):  x(2,0) - x(2,1) >= 8
ord(2,2):  - x(2,0) + x(2,2) >= 6
triangle2(0,1,0):  y(0,1,0) + y(1,0,0) = 1
triangle2(0,1,1):  y(0,1,1) + y(1,0,1) = 1
triangle2(0,1,2):  y(0,1,2) + y(1,0,2) = 1
triangle2(0,2,0):  y(0,2,0) + y(2,0,0) = 1
triangle2(0,2,1):  y(0,2,1) + y(2,0,1) = 1
triangle2(0,2,2):  y(0,2,2) + y(2,0,2) = 1
triangle2(1,2,0):  y(1,2,0) + y(2,1,0) = 1
triangle2(1,2,1):  y(1,2,1) + y(2,1,1) = 1
triangle2(1,2,2):  y(1,2,2) + y(2,1,2) = 1
MCLinV(0,1,0):  x(0,0) - v(0,1,0) - x(1,0) = 6
MCLinV(1,0,0):  - x(0,0) - v(1,0,0) + x(1,0) = 7
MCLin1(0,1,0):  u(0,1,0) >= -0
MCLin2(0,1,0):  -44 y(1,0,0) - u(0,1,0) <= -0
MCLin3(0,1,0):  22 y(1,0,0) + v(0,1,0) - u(0,1,0) <= 22
MCLin4(0,1,0):  22 y(1,0,0) - u(0,1,0) >= -0
MCLin5(0,1,0):  -44 y(1,0,0) + v(0,1,0) - u(0,1,0) >= -44
MCLin6(1,0,0):  u(1,0,0) >= -0
MCLin7(1,0,0):  -35 y(0,1,0) - u(1,0,0) <= -0
MCLin8(1,0,0):  31 y(0,1,0) + v(1,0,0) - u(1,0,0) <= 31
MCLin9(1,0,0):  31 y(0,1,0) - u(1,0,0) >= -0
MCLin10(1,0,0):  -35 y(0,1,0) + v(1,0,0) - u(1,0,0) >= -35
MCLinV(0,1,1):  x(0,1) - v(0,1,1) - x(1,1) = 2
MCLinV(1,0,1):  - x(0,1) - v(1,0,1) + x(1,1) = 3
MCLin1(0,1,1):  u(0,1,1) >= -0
MCLin2(0,1,1):  -31 y(1,0,1) - u(0,1,1) <= -0
MCLin3(0,1,1):  35 y(1,0,1) + v(0,1,1) - u(0,1,1) <= 35
MCLin4(0,1,1):  35 y(1,0,1) - u(0,1,1) >= -0
MCLin5(0,1,1):  -31 y(1,0,1) + v(0,1,1) - u(0,1,1) >= -31
MCLin6(1,0,1):  u(1,0,1) >= -0
MCLin7(1,0,1):  -40 y(0,1,1) - u(1,0,1) <= -0
MCLin8(1,0,1):  26 y(0,1,1) + v(1,0,1) - u(1,0,1) <= 26
MCLin9(1,0,1):  26 y(0,1,1) - u(1,0,1) >= -0
MCLin10(1,0,1):  -40 y(0,1,1) + v(1,0,1) - u(1,0,1) >= -40
MCLinV(0,1,2):  x(0,2) - v(0,1,2) - x(1,2) = 9
MCLinV(1,0,2):  - x(0,2) - v(1,0,2) + x(1,2) = 5
MCLin1(0,1,2):  u(0,1,2) >= -0
MCLin2(0,1,2):  -41 y(1,0,2) - u(0,1,2) <= -0
MCLin3(0,1,2):  25 y(1,0,2) + v(0,1,2) - u(0,1,2) <= 25
MCLin4(0,1,2):  25 y(1,0,2) - u(0,1,2) >= -0
MCLin5(0,1,2):  -41 y(1,0,2) + v(0,1,2) - u(0,1,2) >= -41
MCLin6(1,0,2):  u(1,0,2) >= -0
MCLin7(1,0,2):  -39 y(0,1,2) - u(1,0,2) <= -0
MCLin8(1,0,2):  27 y(0,1,2) + v(1,0,2) - u(1,0,2) <= 27
MCLin9(1,0,2):  27 y(0,1,2) - u(1,0,2) >= -0
MCLin10(1,0,2):  -39 y(0,1,2) + v(1,0,2) - u(1,0,2) >= -39
MCLinV(0,2,0):  x(0,0) - v(0,2,0) - x(2,0) = 6
MCLinV(2,0,0):  - x(0,0) - v(2,0,0) + x(2,0) = 7
MCLin1(0,2,0):  u(0,2,0) >= -0
MCLin2(0,2,0):  -41 y(2,0,0) - u(0,2,0) <= -0
MCLin3(0,2,0):  25 y(2,0,0) + v(0,2,0) - u(0,2,0) <= 25
MCLin4(0,2,0):  25 y(2,0,0) - u(0,2,0) >= -0
MCLin5(0,2,0):  -41 y(2,0,0) + v(0,2,0) - u(0,2,0) >= -41
MCLin6(2,0,0):  u(2,0,0) >= -0
MCLin7(2,0,0):  -38 y(0,2,0) - u(2,0,0) <= -0
MCLin8(2,0,0):  28 y(0,2,0) + v(2,0,0) - u(2,0,0) <= 28
MCLin9(2,0,0):  28 y(0,2,0) - u(2,0,0) >= -0
MCLin10(2,0,0):  -38 y(0,2,0) + v(2,0,0) - u(2,0,0) >= -38
MCLinV(0,2,1):  x(0,1) - v(0,2,1) - x(2,1) = 8
MCLinV(2,0,1):  - x(0,1) - v(2,0,1) + x(2,1) = 3
MCLin1(0,2,1):  u(0,2,1) >= -0
MCLin2(0,2,1):  -28 y(2,0,1) - u(0,2,1) <= -0
MCLin3(0,2,1):  38 y(2,0,1) + v(0,2,1) - u(0,2,1) <= 38
MCLin4(0,2,1):  38 y(2,0,1) - u(0,2,1) >= -0
MCLin5(0,2,1):  -28 y(2,0,1) + v(0,2,1) - u(0,2,1) >= -28
MCLin6(2,0,1):  u(2,0,1) >= -0
MCLin7(2,0,1):  -49 y(0,2,1) - u(2,0,1) <= -0
MCLin8(2,0,1):  17 y(0,2,1) + v(2,0,1) - u(2,0,1) <= 17
MCLin9(2,0,1):  17 y(0,2,1) - u(2,0,1) >= -0
MCLin10(2,0,1):  -49 y(0,2,1) + v(2,0,1) - u(2,0,1) >= -49
MCLinV(0,2,2):  x(0,2) - v(0,2,2) - x(2,2) = 3
MCLinV(2,0,2):  - x(0,2) - v(2,0,2) + x(2,2) = 5
MCLin1(0,2,2):  u(0,2,2) >= -0
MCLin2(0,2,2):  -49 y(2,0,2) - u(0,2,2) <= -0
MCLin3(0,2,2):  17 y(2,0,2) + v(0,2,2) - u(0,2,2) <= 17
MCLin4(0,2,2):  17 y(2,0,2) - u(0,2,2) >= -0
MCLin5(0,2,2):  -49 y(2,0,2) + v(0,2,2) - u(0,2,2) >= -49
MCLin6(2,0,2):  u(2,0,2) >= -0
MCLin7(2,0,2):  -25 y(0,2,2) - u(2,0,2) <= -0
MCLin8(2,0,2):  41 y(0,2,2) + v(2,0,2) - u(2,0,2) <= 41
MCLin9(2,0,2):  41 y(0,2,2) - u(2,0,2) >= -0
MCLin10(2,0,2):  -25 y(0,2,2) + v(2,0,2) - u(2,0,2) >= -25
MCLinV(1,2,0):  x(1,0) - v(1,2,0) - x(2,0) = 6
MCLinV(2,1,0):  - x(1,0) - v(2,1,0) + x(2,0) = 6
MCLin1(1,2,0):  u(1,2,0) >= -0
MCLin2(1,2,0):  -35 y(2,1,0) - u(1,2,0) <= -0
MCLin3(1,2,0):  29 y(2,1,0) + v(1,2,0) - u(1,2,0) <= 29
MCLin4(1,2,0):  29 y(2,1,0) - u(1,2,0) >= -0
MCLin5(1,2,0):  -35 y(2,1,0) + v(1,2,0) - u(1,2,0) >= -35
MCLin6(2,1,0):  u(2,1,0) >= -0
MCLin7(2,1,0):  -41 y(1,2,0) - u(2,1,0) <= -0
MCLin8(2,1,0):  23 y(1,2,0) + v(2,1,0) - u(2,1,0) <= 23
MCLin9(2,1,0):  23 y(1,2,0) - u(2,1,0) >= -0
MCLin10(2,1,0):  -41 y(1,2,0) + v(2,1,0) - u(2,1,0) >= -41
MCLinV(1,2,1):  x(1,1) - v(1,2,1) - x(2,1) = 8
MCLinV(2,1,1):  - x(1,1) - v(2,1,1) + x(2,1) = 2
MCLin1(1,2,1):  u(1,2,1) >= -0
MCLin2(1,2,1):  -31 y(2,1,1) - u(1,2,1) <= -0
MCLin3(1,2,1):  33 y(2,1,1) + v(1,2,1) - u(1,2,1) <= 33
MCLin4(1,2,1):  33 y(2,1,1) - u(1,2,1) >= -0
MCLin5(1,2,1):  -31 y(2,1,1) + v(1,2,1) - u(1,2,1) >= -31
MCLin6(2,1,1):  u(2,1,1) >= -0
MCLin7(2,1,1):  -43 y(1,2,1) - u(2,1,1) <= -0
MCLin8(2,1,1):  21 y(1,2,1) + v(2,1,1) - u(2,1,1) <= 21
MCLin9(2,1,1):  21 y(1,2,1) - u(2,1,1) >= -0
MCLin10(2,1,1):  -43 y(1,2,1) + v(2,1,1) - u(2,1,1) >= -43
MCLinV(1,2,2):  x(1,2) - v(1,2,2) - x(2,2) = 3
MCLinV(2,1,2):  - x(1,2) - v(2,1,2) + x(2,2) = 9
MCLin1(1,2,2):  u(1,2,2) >= -0
MCLin2(1,2,2):  -49 y(2,1,2) - u(1,2,2) <= -0
MCLin3(1,2,2):  15 y(2,1,2) + v(1,2,2) - u(1,2,2) <= 15
MCLin4(1,2,2):  15 y(2,1,2) - u(1,2,2) >= -0
MCLin5(1,2,2):  -49 y(2,1,2) + v(1,2,2) - u(1,2,2) >= -49
MCLin6(2,1,2):  u(2,1,2) >= -0
MCLin7(2,1,2):  -27 y(1,2,2) - u(2,1,2) <= -0
MCLin8(2,1,2):  37 y(1,2,2) + v(2,1,2) - u(2,1,2) <= 37
MCLin9(2,1,2):  37 y(1,2,2) - u(2,1,2) >= -0
MCLin10(2,1,2):  -27 y(1,2,2) + v(2,1,2) - u(2,1,2) >= -27
makespan(0):  C - x(0,1) >= 3
makespan(1):  C - x(1,0) >= 6
makespan(2):  C - x(2,2) >= 3
Bounds
 0 <= C <= 49
 5 <= x(0,0) <= 39
 0 <= y(0,1,0) <= 1
 0 <= y(1,0,0) <= 1
 -44 <= v(0,1,0) <= 22
 -35 <= v(1,0,0) <= 31
 -490 <= u(0,1,0)
 -490 <= u(1,0,0)
 0 <= y(0,2,0) <= 1
 0 <= y(2,0,0) <= 1
 -41 <= v(0,2,0) <= 25
 -38 <= v(2,0,0) <= 28
 -490 <= u(0,2,0)
 -490 <= u(2,0,0)
 11 <= x(1,0) <= 43
 0 <= y(1,2,0) <= 1
 0 <= y(2,1,0) <= 1
 -35 <= v(1,2,0) <= 29
 -41 <= v(2,1,0) <= 23
 -490 <= u(1,2,0)
 -490 <= u(2,1,0)
 8 <= x(2,0) <= 40
 12 <= x(0,1) <= 46
 0 <= y(0,1,1) <= 1
 0 <= y(1,0,1) <= 1
 -31 <= v(0,1,1) <= 35
 -40 <= v(1,0,1) <= 26
 -490 <= u(0,1,1)
 -490 <= u(1,0,1)
 0 <= y(0,2,1) <= 1
 0 <= y(2,0,1) <= 1
 -28 <= v(0,2,1) <= 38
 -49 <= v(2,0,1) <= 17
 -490 <= u(0,2,1)
 -490 <= u(2,0,1)
 9 <= x(1,1) <= 41
 0 <= y(1,2,1) <= 1
 0 <= y(2,1,1) <= 1
 -31 <= v(1,2,1) <= 33
 -43 <= v(2,1,1) <= 21
 -490 <= u(1,2,1)
 -490 <= u(2,1,1)
 0 <= x(2,1) <= 32
 0 <= x(0,2) <= 34
 0 <= y(0,1,2) <= 1
 0 <= y(1,0,2) <= 1
 -41 <= v(0,1,2) <= 25
 -39 <= v(1,0,2) <= 27
 -490 <= u(0,1,2)
 -490 <= u(1,0,2)
 0 <= y(0,2,2) <= 1
 0 <= y(2,0,2) <= 1
 -49 <= v(0,2,2) <= 17
 -25 <= v(2,0,2) <= 41
 -490 <= u(0,2,2)
 -490 <= u(2,0,2)
 0 <= x(1,2) <= 32
 0 <= y(1,2,2) <= 1
 0 <= y(2,1,2) <= 1
 -49 <= v(1,2,2) <= 15
 -27 <= v(2,1,2) <= 37
 -490 <= u(1,2,2)
 -490 <= u(2,1,2)
 14 <= x(2,2) <= 46
Integers
C x(0,0) y(0,1,0) y(1,0,0) v(0,1,0) v(1,0,0) u(0,1,0) u(1,0,0) y(0,2,0) y(2,0,0) 
v(0,2,0) v(2,0,0) u(0,2,0) u(2,0,0) x(1,0) y(1,2,0) y(2,1,0) v(1,2,0) v(2,1,0) u(1,2,0) 
u(2,1,0) x(2,0) x(0,1) y(0,1,1) y(1,0,1) v(0,1,1) v(1,0,1) u(0,1,1) u(1,0,1) y(0,2,1) 
y(2,0,1) v(0,2,1) v(2,0,1) u(0,2,1) u(2,0,1) x(1,1) y(1,2,1) y(2,1,1) v(1,2,1) v(2,1,1) 
u(1,2,1) u(2,1,1) x(2,1) x(0,2) y(0,1,2) y(1,0,2) v(0,1,2) v(1,0,2) u(0,1,2) u(1,0,2) 
y(0,2,2) y(2,0,2) v(0,2,2) v(2,0,2) u(0,2,2) u(2,0,2) x(1,2) y(1,2,2) y(2,1,2) v(1,2,2) 
v(2,1,2) u(1,2,2) u(2,1,2) x(2,2) 
End
